牛客/2019牛客暑期多校训练营/数据/9_D_Knapsack Cryptosystem/19.in
36 918038865652650
75591509004456 47683516734706 5821528330081 45372577259993 82612686715192 33817879886428 15330364088724 56257780972485 62609465022148 80199789930691 78177710924281 12710139246777 74082518528278 86520697311235 59512919270493 53075174806323 60124844326329 74707735262053 69001400512085 36082342609465 35443363553707 76580636052310 37320327475720 64261421940588 5414659213948 84595005153027 26128952577989 11590134409505 30101229089423 30755036736134 85071415588363 20662403288744 64193853018459 71136265983057 46608058767044 62193157916610
